Geometry = GenFormat { 
    <<< "geo_end.gen" 
} 
 
Hamiltonian = DFTB{ 
   KPointsAndWeights = SupercellFolding { 
      2 0 0 
      0 2 0 
      0 0 2 
      0.5 0.5 0.5 
   } 
   MaxAngularMomentum = { 
      Si = "p" 
   } 
   SCC = Yes 
   SlaterKosterFiles = {
      Si-Si = "./Si-Si.skf"
   }
} 
Options { 
   WriteResultsTag = Yes 
} 
ParserOptions { 
   IgnoreUnprocessedNodes = Yes  
} 
Analysis { 
   CalculateForces = Yes  
} 
