Geometry = GenFormat { 
    <<< "geo_end.gen" 
} 
 
Hamiltonian = DFTB{ 
   KPointsAndWeights = SupercellFolding { 
      2 0 0 
      0 2 0 
      0 0 2 
      0.5 0.5 0.5 
   } 
   MaxAngularMomentum = { 
      Si = "p" 
   } 
   SCC = Yes 
   SlaterKosterFiles = Type2FileNames{ 
      Prefix = /home/mazay/prg/slakos/origin/mio-1-1//../pbc-0-3/ 
      Separator = "-" 
      Suffix = ".skf" 
      } 
   } 
Options { 
   WriteResultsTag = Yes 
} 
ParserOptions { 
   IgnoreUnprocessedNodes = Yes  
} 
Analysis { 
   CalculateForces = Yes  
} 
