#=======================================================
# FHI-aims file: ./geometry.in
# Created using the Atomic Simulation Environment (ASE)
# Mon Feb 21 20:47:44 2022
#=======================================================
lattice_vector 2.7135460000000000 2.7135460000000000 0.0000000000000000 
lattice_vector 0.0000000000000000 2.7135460000000000 2.7135460000000000 
lattice_vector 2.7135460000000000 0.0000000000000000 2.7135460000000000 
atom_frac 0.0000000000000000 0.0000000000000000 0.0000000000000000 Si
initial_moment 1
atom_frac 0.2500000000000000 0.2500000000000000 0.2500000000000000 Si
initial_moment -1


